SDVRP instances/custom_instances/p10_7_splitx10_0.vrp
NAME:p10_7_splitx10_
BEST_KNOWN: 0
COMMENT: 0
DIMENSION: 952
CAPACITY: 2000
EDGE_WEIGHT_FORMAT: FUNCTION
EDGE_WEIGHT_TYPE: EXACT_2D
NODE_COORD_SECTION
1 0.00000 0.00000
2 -24 -37
3 -24 -37
4 -24 -37
5 -2 28
6 -2 28
7 -2 28
8 -2 28
9 -2 28
10 -2 28
11 -32 16
12 -32 16
13 23 48
14 23 48
15 23 48
16 23 48
17 -20 6
18 -20 6
19 25 15
20 25 15
21 25 15
22 25 15
23 25 15
24 -47 33
25 -47 33
26 -47 33
27 -47 33
28 -27 8
29 -1 6
30 -1 6
31 -1 6
32 -1 6
33 -1 6
34 -25 39
35 -25 39
36 -25 39
37 -25 39
38 -25 39
39 -25 39
40 -9 12
41 -9 12
42 -9 12
43 -9 12
44 -9 12
45 -9 12
46 -1 31
47 -1 31
48 -1 31
49 -1 31
50 9 -1
51 9 -1
52 9 -1
53 9 -1
54 9 -1
55 35 -29
56 35 -29
57 35 -29
58 35 -29
59 35 -29
60 21 -43
61 21 -43
62 21 -43
63 6 50
64 6 50
65 6 50
66 6 50
67 6 50
68 6 50
69 6 50
70 -9 0
71 -9 0
72 -9 0
73 -9 0
74 43 -11
75 43 -11
76 43 -11
77 43 -11
78 43 -11
79 23 28
80 23 28
81 23 28
82 23 28
83 23 28
84 23 28
85 23 28
86 -11 20
87 -11 20
88 -11 20
89 -11 20
90 31 -42
91 31 -42
92 31 -42
93 31 -42
94 31 -42
95 31 -42
96 31 -42
97 11 37
98 11 37
99 8 7
100 8 7
101 8 7
102 8 7
103 -22 -15
104 -22 -15
105 -22 -15
106 -22 -15
107 -22 -15
108 -22 -15
109 5 -4
110 5 -4
111 5 -4
112 5 -4
113 2 7
114 2 7
115 2 7
116 2 7
117 2 7
118 2 7
119 42 -22
120 42 -22
121 42 -22
122 -21 -24
123 -21 -24
124 -21 -24
125 -21 -24
126 -21 -24
127 -21 -24
128 -21 -24
129 -20 -28
130 -20 -28
131 -20 -28
132 -20 -28
133 -20 -28
134 20 -1
135 20 -1
136 20 -1
137 20 -1
138 49 17
139 49 17
140 49 17
141 -11 14
142 -11 14
143 -11 14
144 -11 14
145 -47 -45
146 -47 -45
147 -47 -45
148 -47 -45
149 -47 -45
150 49 -32
151 49 -32
152 49 -32
153 49 -32
154 49 -32
155 5 0
156 5 0
157 5 0
158 5 0
159 5 0
160 5 0
161 35 38
162 35 38
163 35 38
164 35 38
165 35 38
166 -49 23
167 -49 23
168 -49 23
169 -49 23
170 -49 23
171 -5 -25
172 -5 -25
173 -5 -25
174 -5 -25
175 -5 -25
176 -5 -25
177 46 -44
178 46 -44
179 46 -44
180 46 -44
181 46 -44
182 -21 17
183 -21 17
184 -21 17
185 -44 -22
186 -44 -22
187 -44 -22
188 -44 -22
189 -44 -22
190 -44 -22
191 -44 -22
192 27 -9
193 27 -9
194 27 -9
195 27 -9
196 27 -9
197 27 -9
198 16 -8
199 16 -8
200 16 -8
201 16 -8
202 16 -8
203 16 -8
204 31 50
205 31 50
206 31 50
207 31 -38
208 31 -38
209 31 -38
210 31 -38
211 -24 -36
212 -24 -36
213 -24 -36
214 -24 -36
215 -24 -36
216 -24 -36
217 -24 -36
218 -32 11
219 -32 11
220 -32 11
221 -32 11
222 -32 11
223 -32 11
224 -32 11
225 -7 30
226 -7 30
227 -7 30
228 -7 30
229 27 -45
230 27 -45
231 27 -45
232 27 -45
233 27 -45
234 27 -45
235 27 -45
236 27 -45
237 -39 -41
238 -39 -41
239 -39 -41
240 -39 -41
241 -39 -41
242 -39 -41
243 3 -1
244 3 -1
245 3 -1
246 3 -1
247 2 50
248 2 50
249 2 50
250 2 50
251 2 50
252 2 50
253 -15 -33
254 -15 -33
255 -15 -33
256 -15 -33
257 -15 -33
258 -15 -33
259 -19 -3
260 -19 -3
261 -19 -3
262 -19 -3
263 27 -17
264 27 -17
265 27 -17
266 27 -17
267 27 -17
268 22 20
269 22 20
270 22 20
271 22 20
272 22 20
273 22 20
274 22 20
275 -17 36
276 -17 36
277 -17 36
278 -17 36
279 -17 36
280 -17 36
281 -17 36
282 -17 36
283 -8 1
284 -8 1
285 -6 -27
286 -6 -27
287 -6 -27
288 -6 -27
289 -6 -27
290 -6 -27
291 -6 -27
292 43 -1
293 43 -1
294 43 -1
295 43 -1
296 43 -1
297 43 -1
298 -38 -12
299 -38 -12
300 -38 -12
301 -38 -12
302 46 -35
303 46 -35
304 46 -35
305 46 -35
306 -34 16
307 -34 16
308 -34 16
309 -34 16
310 -34 16
311 -32 19
312 -32 19
313 -32 19
314 -32 19
315 -32 19
316 -32 19
317 2 17
318 2 17
319 2 17
320 2 17
321 2 17
322 -14 -29
323 -14 -29
324 -14 -29
325 -14 -29
326 -14 -29
327 -14 -29
328 46 -33
329 46 -33
330 46 -33
331 46 -33
332 -49 -41
333 -49 -41
334 -49 -41
335 -49 -41
336 -49 -41
337 -49 -41
338 -49 -41
339 -19 44
340 -19 44
341 -19 44
342 -19 44
343 -44 -30
344 -44 -30
345 -44 -30
346 -44 -30
347 -31 38
348 -31 38
349 9 48
350 9 48
351 9 48
352 9 48
353 -8 47
354 -8 47
355 -8 47
356 10 -31
357 10 -31
358 10 -31
359 10 -31
360 10 -31
361 10 -31
362 29 4
363 29 4
364 29 4
365 -23 40
366 -23 40
367 -23 40
368 -34 -5
369 -34 -5
370 -34 -5
371 -34 -5
372 -34 -5
373 -34 -5
374 14 43
375 14 43
376 14 43
377 14 43
378 34 33
379 34 33
380 34 33
381 34 33
382 34 33
383 34 33
384 34 33
385 13 -2
386 13 -2
387 13 -2
388 13 -2
389 -47 -20
390 -47 -20
391 -47 -20
392 -47 -20
393 -37 -36
394 -37 -36
395 -37 -36
396 20 30
397 20 30
398 20 30
399 -48 11
400 -48 11
401 -48 11
402 -48 11
403 -48 11
404 18 17
405 18 17
406 18 17
407 7 13
408 7 13
409 31 -37
410 31 -37
411 31 -37
412 43 -7
413 43 -7
414 -10 11
415 -10 11
416 10 -33
417 10 -33
418 10 -33
419 10 -33
420 10 -33
421 45 33
422 45 33
423 45 33
424 45 33
425 31 -29
426 31 -29
427 31 -29
428 -20 49
429 -20 49
430 -20 49
431 -20 49
432 5 -16
433 5 -16
434 5 -16
435 5 -16
436 39 45
437 39 45
438 39 45
439 39 45
440 39 45
441 39 45
442 14 -17
443 14 -17
444 14 -17
445 14 -17
446 14 -17
447 14 -17
448 -11 -45
449 -11 -45
450 -11 -45
451 -30 6
452 -30 6
453 -30 6
454 24 -41
455 24 -41
456 15 -16
457 15 -16
458 15 -16
459 15 -16
460 15 -16
461 15 -16
462 -29 11
463 -29 11
464 -29 11
465 -29 11
466 -29 11
467 -29 11
468 -29 11
469 7 -16
470 7 -16
471 7 -16
472 18 -35
473 18 -35
474 18 -35
475 18 -35
476 49 16
477 49 16
478 49 16
479 49 16
480 49 16
481 -31 -40
482 -31 -40
483 -31 -40
484 -31 -40
485 -31 -40
486 -29 -17
487 -29 -17
488 -22 5
489 -22 5
490 -22 5
491 -22 5
492 -27 7
493 -27 7
494 -27 7
495 -27 7
496 -27 7
497 -27 7
498 -27 7
499 27 1
500 27 1
501 27 1
502 27 1
503 27 1
504 27 1
505 27 1
506 41 -40
507 41 -40
508 41 -40
509 41 -40
510 41 -40
511 41 -40
512 41 -40
513 42 42
514 42 42
515 42 42
516 42 42
517 42 42
518 42 42
519 42 42
520 -13 42
521 -13 42
522 -13 42
523 -13 42
524 -13 42
525 -13 42
526 -21 -46
527 -21 -46
528 0 -10
529 0 -10
530 0 -10
531 0 -10
532 0 -10
533 -31 -37
534 -31 -37
535 -31 -37
536 -31 -37
537 -31 -37
538 -31 -37
539 -46 -47
540 -46 -47
541 -46 -47
542 -46 18
543 -46 18
544 -46 18
545 -46 18
546 -46 18
547 -13 -45
548 -13 -45
549 -13 -45
550 -13 -45
551 -13 -45
552 -13 -45
553 22 38
554 22 38
555 22 38
556 22 38
557 22 38
558 22 38
559 17 -21
560 17 -21
561 17 -21
562 17 -21
563 17 -21
564 17 -21
565 17 -21
566 17 -21
567 12 -30
568 12 -30
569 12 -30
570 12 -30
571 40 -27
572 40 -27
573 40 -27
574 40 -27
575 40 -27
576 26 47
577 26 47
578 26 47
579 26 47
580 26 47
581 13 -24
582 13 -24
583 20 40
584 20 40
585 20 40
586 20 40
587 20 40
588 20 40
589 20 40
590 20 40
591 -26 39
592 -26 39
593 -26 39
594 -26 39
595 -26 39
596 -41 -29
597 -28 24
598 44 16
599 44 16
600 44 16
601 44 16
602 50 -23
603 50 -23
604 50 -23
605 50 -23
606 31 47
607 31 47
608 31 47
609 31 47
610 31 47
611 40 34
612 40 34
613 40 34
614 40 34
615 40 34
616 40 34
617 50 3
618 50 3
619 50 3
620 50 3
621 50 3
622 -12 -24
623 -12 -24
624 -12 -24
625 -12 -24
626 45 -25
627 45 -25
628 45 -25
629 -26 -49
630 -26 -49
631 -26 -49
632 -26 -49
633 -30 -19
634 -30 -19
635 -30 -19
636 -30 -19
637 -30 -19
638 -30 -19
639 -30 7
640 -30 7
641 -30 7
642 -30 7
643 17 31
644 17 31
645 17 31
646 17 31
647 17 31
648 17 31
649 17 31
650 17 31
651 27 -50
652 27 -50
653 27 -50
654 27 -50
655 -33 -2
656 -33 -2
657 -33 -2
658 -33 -2
659 -33 -2
660 9 -30
661 9 -30
662 9 -30
663 9 -30
664 9 -30
665 9 -30
666 16 17
667 16 17
668 16 17
669 16 17
670 -50 31
671 -50 31
672 -50 31
673 -50 31
674 -50 31
675 -50 31
676 -33 21
677 -33 21
678 -33 21
679 -33 21
680 -33 21
681 -33 21
682 -33 21
683 -33 21
684 -6 -46
685 -6 -46
686 -6 -46
687 -6 -46
688 -6 -46
689 -6 -46
690 10 -39
691 10 -39
692 10 -39
693 10 -39
694 10 -39
695 10 -39
696 10 -39
697 16 -23
698 16 -23
699 16 -23
700 -32 -2
701 -32 -2
702 -32 -2
703 50 10
704 50 10
705 50 10
706 50 10
707 50 10
708 50 10
709 50 10
710 -4 -8
711 -4 -8
712 -4 -8
713 -4 -8
714 -4 -8
715 -4 -8
716 29 -31
717 29 -31
718 -31 -38
719 -31 -38
720 -31 -38
721 -31 -38
722 -31 -38
723 -31 -38
724 -24 10
725 -24 10
726 -24 10
727 -24 10
728 -24 10
729 -24 10
730 -24 10
731 -34 21
732 -34 21
733 -34 21
734 -34 21
735 35 -35
736 35 -35
737 35 -35
738 35 -35
739 35 -35
740 35 -35
741 0 39
742 0 39
743 0 39
744 0 39
745 0 39
746 -37 -10
747 -37 -10
748 26 -5
749 26 -5
750 26 -5
751 22 8
752 22 8
753 22 8
754 22 8
755 22 8
756 22 8
757 22 8
758 22 8
759 17 2
760 17 2
761 17 2
762 17 2
763 28 2
764 28 2
765 28 2
766 28 2
767 28 2
768 48 -32
769 48 -32
770 48 -32
771 48 -32
772 48 -32
773 48 -32
774 19 -20
775 19 -20
776 19 -20
777 19 -20
778 19 -20
779 41 7
780 41 7
781 41 7
782 41 7
783 31 -13
784 31 -13
785 31 -13
786 31 -13
787 31 -13
788 31 -13
789 31 -13
790 26 22
791 26 22
792 26 22
793 26 22
794 26 22
795 26 22
796 26 22
797 -17 -39
798 -17 -39
799 -17 -39
800 -17 -39
801 -17 -39
802 31 19
803 31 19
804 10 -10
805 10 -10
806 10 -10
807 10 -10
808 10 -10
809 10 -10
810 10 -10
811 -31 -46
812 -31 -46
813 -31 -46
814 -31 -46
815 -31 -46
816 -31 -46
817 49 14
818 49 14
819 49 14
820 49 14
821 49 14
822 49 14
823 49 14
824 13 -18
825 13 -18
826 13 -18
827 -15 16
828 -15 16
829 -15 16
830 -15 16
831 -15 16
832 -15 16
833 -39 15
834 -39 15
835 -39 15
836 45 44
837 45 44
838 45 44
839 45 44
840 45 44
841 45 44
842 45 44
843 45 44
844 10 37
845 10 37
846 10 37
847 -31 36
848 -31 36
849 -31 36
850 -31 36
851 -31 36
852 -31 36
853 2 50
854 2 50
855 2 50
856 2 50
857 2 50
858 2 50
859 2 50
860 -35 15
861 -35 15
862 -35 15
863 -35 15
864 -35 15
865 -10 43
866 -10 43
867 -10 43
868 -10 43
869 -10 43
870 -10 43
871 -10 43
872 -50 42
873 -50 42
874 -50 42
875 -50 42
876 -50 42
877 -50 42
878 -40 -3
879 -40 -3
880 -40 -3
881 -40 -3
882 19 22
883 19 22
884 19 22
885 19 22
886 19 22
887 -36 25
888 -36 25
889 -36 25
890 -36 25
891 -36 25
892 -36 25
893 23 29
894 23 29
895 23 29
896 -6 27
897 -6 27
898 -6 27
899 -6 27
900 -6 27
901 -6 27
902 27 -47
903 27 -47
904 27 -47
905 27 -47
906 -21 46
907 -21 46
908 -21 46
909 4 -45
910 4 -45
911 4 -45
912 4 -45
913 4 -45
914 40 6
915 40 6
916 40 6
917 40 6
918 22 -9
919 22 -9
920 22 -9
921 22 -9
922 22 -9
923 22 -9
924 -22 44
925 -22 44
926 -22 44
927 -22 44
928 16 8
929 16 8
930 16 8
931 16 8
932 16 8
933 16 8
934 -24 36
935 -24 36
936 -24 36
937 49 -31
938 49 -31
939 49 -31
940 -5 -9
941 -5 -9
942 30 35
943 30 35
944 30 35
945 30 35
946 30 35
947 30 35
948 -44 34
949 -44 34
950 -44 34
951 -44 34
952 -44 34
DEMAND_SECTION
1 0
2 400
3 20
4 10
5 200
6 100
7 20
8 20
9 20
10 10
11 400
12 100
13 200
14 100
15 20
16 20
17 400
18 200
19 400
20 400
21 20
22 20
23 10
24 400
25 200
26 100
27 20
28 400
29 400
30 400
31 20
32 20
33 20
34 200
35 100
36 20
37 20
38 20
39 10
40 200
41 20
42 20
43 20
44 20
45 10
46 200
47 100
48 20
49 20
50 400
51 200
52 100
53 20
54 20
55 400
56 200
57 100
58 20
59 20
60 400
61 200
62 100
63 400
64 400
65 20
66 20
67 20
68 20
69 10
70 400
71 100
72 20
73 10
74 400
75 100
76 20
77 20
78 20
79 200
80 100
81 20
82 20
83 20
84 20
85 10
86 400
87 20
88 20
89 10
90 400
91 100
92 20
93 20
94 20
95 20
96 10
97 400
98 100
99 400
100 400
101 100
102 20
103 400
104 200
105 100
106 20
107 20
108 10
109 200
110 20
111 20
112 10
113 400
114 200
115 20
116 20
117 20
118 20
119 400
120 100
121 20
122 400
123 400
124 100
125 20
126 20
127 20
128 10
129 400
130 20
131 20
132 20
133 10
134 200
135 100
136 20
137 10
138 200
139 100
140 20
141 400
142 200
143 100
144 20
145 200
146 20
147 20
148 20
149 20
150 200
151 100
152 20
153 20
154 20
155 400
156 400
157 100
158 20
159 20
160 20
161 200
162 100
163 20
164 20
165 10
166 400
167 200
168 20
169 20
170 10
171 200
172 100
173 20
174 20
175 20
176 10
177 400
178 400
179 100
180 20
181 10
182 400
183 20
184 10
185 400
186 400
187 100
188 20
189 20
190 20
191 10
192 400
193 100
194 20
195 20
196 20
197 10
198 200
199 20
200 20
201 20
202 20
203 10
204 400
205 100
206 10
207 400
208 400
209 20
210 10
211 400
212 200
213 20
214 20
215 20
216 20
217 10
218 400
219 200
220 100
221 20
222 20
223 20
224 20
225 400
226 20
227 20
228 20
229 400
230 400
231 100
232 20
233 20
234 20
235 20
236 10
237 200
238 20
239 20
240 20
241 20
242 10
243 200
244 20
245 20
246 20
247 200
248 100
249 20
250 20
251 20
252 20
253 400
254 200
255 20
256 20
257 20
258 20
259 400
260 200
261 100
262 10
263 400
264 20
265 20
266 20
267 10
268 400
269 200
270 100
271 20
272 20
273 20
274 20
275 400
276 400
277 100
278 20
279 20
280 20
281 20
282 10
283 400
284 200
285 400
286 200
287 100
288 20
289 20
290 20
291 20
292 200
293 100
294 20
295 20
296 20
297 10
298 200
299 20
300 20
301 20
302 400
303 100
304 20
305 10
306 400
307 200
308 20
309 20
310 10
311 400
312 400
313 20
314 20
315 20
316 10
317 400
318 20
319 20
320 20
321 20
322 400
323 400
324 100
325 20
326 20
327 10
328 400
329 400
330 100
331 20
332 200
333 100
334 20
335 20
336 20
337 20
338 10
339 200
340 100
341 20
342 10
343 400
344 400
345 20
346 10
347 400
348 100
349 400
350 400
351 100
352 10
353 400
354 400
355 20
356 400
357 100
358 20
359 20
360 20
361 10
362 400
363 200
364 20
365 200
366 100
367 20
368 400
369 200
370 20
371 20
372 20
373 10
374 400
375 400
376 20
377 20
378 400
379 200
380 20
381 20
382 20
383 20
384 10
385 400
386 400
387 100
388 20
389 400
390 200
391 100
392 20
393 400
394 100
395 10
396 400
397 400
398 100
399 400
400 400
401 20
402 20
403 20
404 400
405 100
406 10
407 200
408 100
409 400
410 20
411 20
412 400
413 100
414 400
415 20
416 400
417 20
418 20
419 20
420 10
421 400
422 400
423 100
424 10
425 400
426 100
427 20
428 400
429 400
430 20
431 20
432 200
433 100
434 20
435 10
436 400
437 400
438 100
439 20
440 20
441 10
442 400
443 200
444 100
445 20
446 20
447 20
448 200
449 100
450 20
451 400
452 100
453 10
454 400
455 100
456 400
457 20
458 20
459 20
460 20
461 10
462 400
463 400
464 20
465 20
466 20
467 20
468 10
469 200
470 100
471 20
472 400
473 20
474 20
475 10
476 400
477 400
478 100
479 20
480 10
481 400
482 200
483 100
484 20
485 10
486 200
487 100
488 400
489 100
490 20
491 20
492 400
493 400
494 100
495 20
496 20
497 20
498 20
499 400
500 200
501 100
502 20
503 20
504 20
505 20
506 200
507 100
508 20
509 20
510 20
511 20
512 10
513 400
514 200
515 100
516 20
517 20
518 20
519 20
520 400
521 400
522 100
523 20
524 20
525 20
526 200
527 100
528 400
529 200
530 20
531 20
532 20
533 400
534 400
535 20
536 20
537 20
538 10
539 400
540 200
541 20
542 400
543 20
544 20
545 20
546 20
547 200
548 100
549 20
550 20
551 20
552 10
553 200
554 100
555 20
556 20
557 20
558 20
559 400
560 400
561 100
562 20
563 20
564 20
565 20
566 10
567 400
568 20
569 20
570 20
571 400
572 20
573 20
574 20
575 20
576 400
577 400
578 100
579 20
580 20
581 400
582 400
583 400
584 200
585 100
586 20
587 20
588 20
589 20
590 10
591 400
592 400
593 20
594 20
595 10
596 400
597 400
598 400
599 200
600 20
601 20
602 400
603 200
604 20
605 10
606 200
607 100
608 20
609 20
610 20
611 400
612 200
613 100
614 20
615 20
616 10
617 400
618 100
619 20
620 20
621 10
622 400
623 200
624 20
625 10
626 400
627 100
628 20
629 400
630 200
631 20
632 10
633 400
634 100
635 20
636 20
637 20
638 20
639 200
640 100
641 20
642 20
643 400
644 200
645 100
646 20
647 20
648 20
649 20
650 10
651 400
652 400
653 20
654 10
655 200
656 20
657 20
658 20
659 10
660 400
661 200
662 20
663 20
664 20
665 20
666 200
667 100
668 20
669 20
670 400
671 200
672 20
673 20
674 20
675 10
676 400
677 400
678 100
679 20
680 20
681 20
682 20
683 10
684 400
685 400
686 100
687 20
688 20
689 10
690 400
691 100
692 20
693 20
694 20
695 20
696 10
697 400
698 200
699 20
700 400
701 400
702 200
703 400
704 200
705 100
706 20
707 20
708 20
709 20
710 400
711 400
712 100
713 20
714 20
715 20
716 400
717 100
718 400
719 200
720 100
721 20
722 20
723 20
724 400
725 400
726 20
727 20
728 20
729 20
730 10
731 200
732 100
733 20
734 10
735 400
736 200
737 20
738 20
739 20
740 20
741 400
742 400
743 100
744 20
745 20
746 400
747 400
748 400
749 200
750 100
751 400
752 400
753 100
754 20
755 20
756 20
757 20
758 10
759 200
760 20
761 20
762 10
763 200
764 20
765 20
766 20
767 20
768 400
769 400
770 100
771 20
772 20
773 20
774 400
775 100
776 20
777 20
778 10
779 400
780 200
781 20
782 10
783 400
784 200
785 100
786 20
787 20
788 20
789 10
790 400
791 100
792 20
793 20
794 20
795 20
796 10
797 400
798 400
799 100
800 20
801 10
802 400
803 10
804 200
805 100
806 20
807 20
808 20
809 20
810 10
811 200
812 20
813 20
814 20
815 20
816 10
817 200
818 100
819 20
820 20
821 20
822 20
823 10
824 400
825 20
826 20
827 400
828 400
829 100
830 20
831 20
832 10
833 400
834 400
835 200
836 400
837 200
838 100
839 20
840 20
841 20
842 20
843 10
844 400
845 100
846 10
847 400
848 400
849 20
850 20
851 20
852 10
853 200
854 100
855 20
856 20
857 20
858 20
859 10
860 400
861 400
862 100
863 20
864 20
865 400
866 400
867 100
868 20
869 20
870 20
871 20
872 400
873 100
874 20
875 20
876 20
877 20
878 200
879 100
880 20
881 20
882 400
883 400
884 20
885 20
886 10
887 400
888 200
889 100
890 20
891 20
892 10
893 400
894 200
895 20
896 400
897 200
898 100
899 20
900 20
901 20
902 400
903 400
904 20
905 10
906 400
907 200
908 10
909 400
910 200
911 20
912 20
913 20
914 400
915 20
916 20
917 10
918 200
919 20
920 20
921 20
922 20
923 10
924 200
925 20
926 20
927 20
928 400
929 400
930 100
931 20
932 20
933 10
934 400
935 100
936 20
937 200
938 100
939 20
940 400
941 100
942 400
943 400
944 100
945 20
946 20
947 20
948 400
949 400
950 100
951 20
952 20
DEPOT_SECTION
1
-1
EOF