SDVRP instances/custom_instances/p10_7_splitx10_0.sol
951 -5 48 45 47 46 740 744 741 743 742 896 895 899 -7 8 4 9 6 857 247 852 858 854 853 855 250 251 249 248 246 856 62 63 64 65 67 66 68 -11 10 677 678 676 675 679 680 181 183 831 828 830 -16 17 726 725 727 729 723 728 724 487 -22 21 20 18 19 795 794 790 789 793 792 267 271 270 272 269 273 -27 220 222 223 219 217 218 461 464 462 465 -28 32 30 29 31 112 116 113 115 117 114 154 159 157 -43 39 40 41 143 141 140 142 413 414 283 282 -44 42 829 826 827 86 88 87 85 316 317 319 320 318 -52 133 135 136 134 748 747 749 191 194 193 920 917 921 922 197 200 202 199 -60 61 59 652 650 651 653 901 903 904 -71 72 69 70 261 258 259 260 104 105 107 106 102 103 -82 79 80 81 83 78 84 894 892 893 397 396 395 -92 89 91 95 90 93 94 206 207 208 209 408 409 410 809 808 -100 98 99 101 927 930 932 929 931 928 -109 111 108 803 806 807 446 441 442 443 455 155 -110 56 54 55 58 57 425 426 424 716 715 564 561 562 560 565 444 445 -124 127 122 126 125 121 123 128 132 130 621 624 940 -129 131 483 482 480 481 484 720 717 722 719 721 718 537 534 535 533 -158 156 53 49 51 50 385 387 386 384 242 245 244 -161 162 163 160 164 512 517 513 515 518 514 516 835 837 836 841 842 838 839 840 379 381 383 380 -170 171 172 175 687 688 686 683 685 684 448 447 449 547 551 549 548 546 550 -173 174 288 287 284 285 286 290 289 323 321 324 325 326 322 623 622 -179 180 176 178 177 511 507 510 509 508 506 505 734 736 737 739 735 738 -182 681 682 888 887 26 23 25 24 947 948 951 949 -201 198 120 118 119 626 625 627 570 264 266 263 265 262 -215 212 214 210 213 800 796 797 252 257 253 254 256 712 713 -216 211 2 3 1 812 811 810 813 815 814 630 628 629 631 526 525 798 799 255 -225 227 226 224 519 520 524 522 521 523 276 274 277 278 -235 230 232 233 228 234 231 229 902 454 453 -243 919 918 196 195 192 783 782 787 786 784 788 76 73 75 77 74 412 411 -279 281 275 280 925 926 924 366 364 365 36 37 33 34 35 38 591 933 -294 292 295 296 293 291 618 616 619 617 620 708 706 707 704 702 705 703 820 821 818 819 816 -303 301 302 304 327 330 328 329 767 771 574 572 571 573 -305 309 861 863 860 832 833 834 221 463 467 466 -306 307 308 862 859 542 543 541 544 545 398 400 399 402 401 -310 311 315 732 730 731 733 891 890 886 889 596 -314 312 313 169 167 168 165 166 672 674 673 670 671 669 871 873 874 875 872 876 950 -335 332 337 333 331 334 336 147 145 146 148 144 538 539 540 240 239 237 238 236 241 532 536 -341 338 339 340 430 427 428 429 905 907 906 923 -350 349 351 348 376 375 374 373 845 844 -354 353 352 866 867 865 868 870 864 869 897 900 898 -367 369 370 371 368 372 658 657 656 654 655 700 701 699 -388 391 390 389 185 184 188 186 190 187 189 486 485 -392 394 393 345 342 343 344 595 -405 404 268 791 612 613 611 610 615 614 422 421 420 423 -406 407 883 884 881 882 885 403 666 665 667 668 -431 434 580 581 696 698 697 824 469 470 468 -432 433 662 664 659 663 356 360 355 417 416 415 418 419 566 567 568 -439 440 438 435 436 437 203 205 204 606 609 608 607 605 556 553 557 554 -488 489 490 451 452 450 638 641 640 639 496 492 491 497 495 494 493 -529 531 528 527 530 939 714 709 711 710 -587 583 585 588 589 15 14 12 13 576 579 577 575 578 552 555 643 649 648 -597 598 600 599 137 139 138 476 475 479 477 478 822 817 -634 633 635 636 632 637 300 299 297 298 745 746 880 877 878 879 -645 646 647 644 642 584 586 582 97 96 843 -660 661 358 359 357 569 473 472 474 471 694 693 692 695 691 690 689 910 911 909 912 908 -756 751 752 755 753 750 757 754 762 763 503 502 499 501 500 504 498 761 -759 760 758 765 766 764 361 363 362 914 915 916 913 781 780 779 778 -770 768 769 772 149 151 150 152 153 937 936 938 601 603 604 602 785 -801 802 377 382 378 946 944 945 941 942 943 -804 805 457 460 458 456 459 774 775 773 776 777 559 563 558 823 825 -850 851 847 846 848 849 346 347 592 594 593 590 934 935 0 





OBJ=
5572.898
BEST_KNOWN=
0.000